JulietBench/Juliet_Based_Patch_Bench/linux/CWE-189-Numeric-Errors/CVE_2010_4164_5ef41308f94dcbb3b7afc56cdef1c2ba53fa5d2f/solverx25_parse_facilities_Snippet_patch2.smt2
; benchmark generated from python API
(set-info :status unknown)
(declare-fun R () (_ BitVec 32))
(declare-fun rdi () (_ BitVec 64))
(declare-fun rsi () (_ BitVec 64))
(assert
 (let (($x202 (and (distinct (_ bv2 32) R) true)))
 (let ((?x6 ((_ extract 31 0) rdi)))
 (let ((?x91 (bvadd (_ bv4294967292 32) ?x6)))
 (let (($x86 (= R ?x91)))
 (let ((?x12 ((_ extract 7 0) rsi)))
 (let ((?x39 (bvand ?x12 (_ bv192 8))))
 (let (($x20 (= (_ bv128 8) ?x39)))
 (let (($x93 (and $x20 $x86)))
 (let (($x76 (= R ?x6)))
 (let (($x74 (and (distinct (_ bv128 8) ?x39) true)))
 (let ((?x92 (concat (concat (_ bv0 24) ((_ extract 7 6) rsi)) (_ bv0 6))))
 (let (($x171 (bvslt (_ bv128 32) ?x92)))
 (let (($x84 (and $x171 $x74 $x76)))
 (let ((?x178 (bvadd (_ bv4294967294 32) ?x6)))
 (let (($x188 (= R ?x178)))
 (let (($x95 (bvsge (_ bv128 32) ?x92)))
 (let (($x85 (= (_ bv0 32) ?x92)))
 (let (($x78 (and $x85 $x95 $x74 $x188)))
 (let ((?x201 (bvadd (_ bv4294967293 32) ?x6)))
 (let (($x203 (= R ?x201)))
 (let (($x82 (and (distinct (_ bv0 32) ?x92) true)))
 (let (($x176 (= (_ bv64 32) ?x92)))
 (let (($x187 (and $x176 $x82 $x95 $x74 $x203)))
 (let (($x14 (or $x187 $x78 $x84 $x93)))
 (let (($x175 (not $x14)))
 (let (($x195 (and $x175 $x202)))
 (let (($x17 (= (_ bv2 32) R)))
 (let (($x9 (and $x14 $x17)))
 (let (($x189 (or $x9 $x195)))
 (not $x189)))))))))))))))))))))))))))))))
(check-sat)
